Primitive Cell                          
   1.00000000000000     
     8.1408612293077827   -0.0000012027208824   -0.0000021934547878
    -2.7136216783391820    7.6752771305459424   -0.0000019250615155
    -2.7136217959387361   -3.8376406439364703    6.6469835548752991
   O    Ga
    24    16
Direct
  0.0469445120746049  0.2728146586912814  0.0036488866007614
  0.4530556474882428  0.4567045394357541  0.2258703031422668
  0.2691658783572704  0.7728146839304031  0.7258702595046936
  0.2308342173618155  0.9567043667010162  0.5036487341005675
  0.7728146947618327  0.7258702618449345  0.2691658979817884
  0.0432955704562474  0.4963512479105813  0.7691657739437983
  0.4567045627707489  0.2258702579829825  0.4530556330849132
  0.7271852909055706  0.9963510980838763  0.9530554389925469
  0.0036488518850955  0.0469445060710880  0.2728146784464185
  0.4963512478341933  0.7691657012036643  0.0432955263553928
  0.7741297680159795  0.5469444468294702  0.5432955061753727
  0.7258701849651700  0.2691658570870433  0.7728146782837226
  0.2741297602498676  0.7308341616447568  0.2271853398930791
  0.2258702710017044  0.4530556409590672  0.4567045404705675
  0.9963511026188724  0.9530554413363727  0.7271853057776211
  0.5036487112141164  0.2308342137273881  0.9567043924780134
  0.2728146982652633  0.0036489298455756  0.0469445112384931
  0.9567044020033340  0.5036487286682937  0.2308342612837903
  0.5432954906168531  0.7741297921288381  0.5469444079337761
  0.2271853645291192  0.2741296985395291  0.7308341533332570
  0.7308341499854694  0.2271853183623853  0.2741297371838006
  0.7691657666850267  0.0432955955512551  0.4963512349762133
  0.5469444076574094  0.5432954905972350  0.7741297909811304
  0.9530554453731400  0.7271853440149384  0.9963511362043702
  0.7141986348078926  0.4641985462642039  0.2500005472504973
  0.7858018279204384  0.0358018700563282  0.7499999756441776
  0.2858013397991658  0.5358014148532457  0.7499993748613829
  0.2141982663290730  0.9641982489296970  0.2500001338103420
  0.7499999604686004  0.7858017806998737  0.0358017847065912
  0.7499993736335920  0.2858012352500318  0.5358013659244171
  0.4999999005044898  0.4999999414489145  0.4999999190419113
  0.4999999680641299  0.0000000197885979 -0.0000000105879977
 -0.0000000025531165  0.4999999222597623 -0.0000000180978074
  0.9641982655727667  0.2500001342567742  0.2141982571630263
  0.5358013608123929  0.7499993822199231  0.2858012374783394
  0.0000000577498765  0.0000000635476429  0.4999999987353358
  0.0358018191258528  0.7499999268606434  0.7858017746537590
  0.4641985364725890  0.2500005882557580  0.7141986921314327
  0.2500005730191711  0.7141986437383343  0.4641985903632582
  0.2500001141961340  0.2141982934225277  0.9641982415550039
