Ga32 O48                                
   1.00000000000000     
     9.4006120703186227    0.0000000000000000   -0.0000000000000000
     0.0000000000000000    9.4006120703186227    0.0000000000000000
    -0.0000000000000000    0.0000000000000000    9.4006120703186227
   O    Ga
    48    32
Direct
  0.1146070092504958  0.8887795432867662  0.1581693789917858
  0.1146070092504958  0.1112204787132357  0.3418306210082141
  0.1146070092504958  0.6112204567132338  0.6581694089917810
  0.1146070092504958  0.3887795132867636  0.8418305910082190
  0.1112204787132357  0.1581693789917858  0.6146070322504941
  0.1112204787132357  0.6581694089917810  0.3853929977495084
  0.1112204787132357  0.3418306210082141  0.1146070092504958
  0.1112204787132357  0.8418305910082190  0.8853929677495059
  0.1581693789917858  0.1146070092504958  0.8887795432867662
  0.1581693789917858  0.8853929677495059  0.6112204567132338
  0.1581693789917858  0.3853929977495084  0.3887795132867636
  0.1581693789917858  0.6146070322504941  0.1112204787132357
  0.3418306210082141  0.8853929677495059  0.3887795132867636
  0.3418306210082141  0.1146070092504958  0.1112204787132357
  0.3418306210082141  0.3853929977495084  0.6112204567132338
  0.3418306210082141  0.6146070322504941  0.8887795432867662
  0.3887795132867636  0.6581694089917810  0.6146070322504941
  0.3887795132867636  0.8418305910082190  0.1146070092504958
  0.3887795132867636  0.1581693789917858  0.3853929977495084
  0.3887795132867636  0.3418306210082141  0.8853929677495059
  0.3853929977495084  0.8887795432867662  0.8418305910082190
  0.3853929977495084  0.1112204787132357  0.6581694089917810
  0.3853929977495084  0.3887795132867636  0.1581693789917858
  0.3853929977495084  0.6112204567132338  0.3418306210082141
  0.6146070322504941  0.1112204787132357  0.1581693789917858
  0.6146070322504941  0.6112204567132338  0.8418305910082190
  0.6146070322504941  0.8887795432867662  0.3418306210082141
  0.6146070322504941  0.3887795132867636  0.6581694089917810
  0.6112204567132338  0.1581693789917858  0.8853929677495059
  0.6112204567132338  0.8418305910082190  0.6146070322504941
  0.6112204567132338  0.3418306210082141  0.3853929977495084
  0.6112204567132338  0.6581694089917810  0.1146070092504958
  0.6581694089917810  0.1146070092504958  0.6112204567132338
  0.6581694089917810  0.6146070322504941  0.3887795132867636
  0.6581694089917810  0.3853929977495084  0.1112204787132357
  0.6581694089917810  0.8853929677495059  0.8887795432867662
  0.8418305910082190  0.6146070322504941  0.6112204567132338
  0.8418305910082190  0.8853929677495059  0.1112204787132357
  0.8418305910082190  0.1146070092504958  0.3887795132867636
  0.8418305910082190  0.3853929977495084  0.8887795432867662
  0.8887795432867662  0.8418305910082190  0.3853929977495084
  0.8887795432867662  0.1581693789917858  0.1146070092504958
  0.8887795432867662  0.3418306210082141  0.6146070322504941
  0.8887795432867662  0.6581694089917810  0.8853929677495059
  0.8853929677495059  0.1112204787132357  0.8418305910082190
  0.8853929677495059  0.8887795432867662  0.6581694089917810
  0.8853929677495059  0.6112204567132338  0.1581693789917858
  0.8853929677495059  0.3887795132867636  0.3418306210082141
  0.0000000000000000  0.2500000000000000  0.4640218948203024
  0.0000000000000000  0.7500000000000000  0.0359781201796954
  0.0000000000000000  0.7500000000000000  0.5359781051796980
  0.0000000000000000  0.2500000000000000  0.9640218948203020
  0.0359781201796954  0.0000000000000000  0.7500000000000000
  0.0359781201796954  0.5000000000000000  0.2500000000000000
  0.2500000000000000  0.2500000000000000  0.2500000000000000
  0.2500000000000000  0.7500000000000000  0.7500000000000000
  0.2500000000000000  0.7500000000000000  0.2500000000000000
  0.2500000000000000  0.9640218948203020  0.0000000000000000
  0.2500000000000000  0.0359781201796954  0.5000000000000000
  0.2500000000000000  0.2500000000000000  0.7500000000000000
  0.2500000000000000  0.5359781051796980  0.5000000000000000
  0.2500000000000000  0.4640218948203024  0.0000000000000000
  0.4640218948203024  0.0000000000000000  0.2500000000000000
  0.4640218948203024  0.5000000000000000  0.7500000000000000
  0.5000000000000000  0.7500000000000000  0.9640218948203020
  0.5000000000000000  0.2500000000000000  0.0359781201796954
  0.5000000000000000  0.2500000000000000  0.5359781051796980
  0.5000000000000000  0.7500000000000000  0.4640218948203024
  0.5359781051796980  0.0000000000000000  0.7500000000000000
  0.5359781051796980  0.5000000000000000  0.2500000000000000
  0.7500000000000000  0.7500000000000000  0.2500000000000000
  0.7500000000000000  0.0359781201796954  0.0000000000000000
  0.7500000000000000  0.9640218948203020  0.5000000000000000
  0.7500000000000000  0.2500000000000000  0.2500000000000000
  0.7500000000000000  0.2500000000000000  0.7500000000000000
  0.7500000000000000  0.7500000000000000  0.7500000000000000
  0.7500000000000000  0.4640218948203024  0.5000000000000000
  0.7500000000000000  0.5359781051796980  0.0000000000000000
  0.9640218948203020  0.0000000000000000  0.2500000000000000
  0.9640218948203020  0.5000000000000000  0.7500000000000000
 
  0.00000000E+00  0.00000000E+00  0.00000000E+00
  0.00000000E+00  0.00000000E+00  0.00000000E+00
  0.00000000E+00  0.00000000E+00  0.00000000E+00
  0.00000000E+00  0.00000000E+00  0.00000000E+00
  0.00000000E+00  0.00000000E+00  0.00000000E+00
  0.00000000E+00  0.00000000E+00  0.00000000E+00
  0.00000000E+00  0.00000000E+00  0.00000000E+00
  0.00000000E+00  0.00000000E+00  0.00000000E+00
  0.00000000E+00  0.00000000E+00  0.00000000E+00
  0.00000000E+00  0.00000000E+00  0.00000000E+00
  0.00000000E+00  0.00000000E+00  0.00000000E+00
  0.00000000E+00  0.00000000E+00  0.00000000E+00
  0.00000000E+00  0.00000000E+00  0.00000000E+00
  0.00000000E+00  0.00000000E+00  0.00000000E+00
  0.00000000E+00  0.00000000E+00  0.00000000E+00
  0.00000000E+00  0.00000000E+00  0.00000000E+00
  0.00000000E+00  0.00000000E+00  0.00000000E+00
  0.00000000E+00  0.00000000E+00  0.00000000E+00
  0.00000000E+00  0.00000000E+00  0.00000000E+00
  0.00000000E+00  0.00000000E+00  0.00000000E+00
  0.00000000E+00  0.00000000E+00  0.00000000E+00
  0.00000000E+00  0.00000000E+00  0.00000000E+00
  0.00000000E+00  0.00000000E+00  0.00000000E+00
  0.00000000E+00  0.00000000E+00  0.00000000E+00
  0.00000000E+00  0.00000000E+00  0.00000000E+00
  0.00000000E+00  0.00000000E+00  0.00000000E+00
  0.00000000E+00  0.00000000E+00  0.00000000E+00
  0.00000000E+00  0.00000000E+00  0.00000000E+00
  0.00000000E+00  0.00000000E+00  0.00000000E+00
  0.00000000E+00  0.00000000E+00  0.00000000E+00
  0.00000000E+00  0.00000000E+00  0.00000000E+00
  0.00000000E+00  0.00000000E+00  0.00000000E+00
  0.00000000E+00  0.00000000E+00  0.00000000E+00
  0.00000000E+00  0.00000000E+00  0.00000000E+00
  0.00000000E+00  0.00000000E+00  0.00000000E+00
  0.00000000E+00  0.00000000E+00  0.00000000E+00
  0.00000000E+00  0.00000000E+00  0.00000000E+00
  0.00000000E+00  0.00000000E+00  0.00000000E+00
  0.00000000E+00  0.00000000E+00  0.00000000E+00
  0.00000000E+00  0.00000000E+00  0.00000000E+00
  0.00000000E+00  0.00000000E+00  0.00000000E+00
  0.00000000E+00  0.00000000E+00  0.00000000E+00
  0.00000000E+00  0.00000000E+00  0.00000000E+00
  0.00000000E+00  0.00000000E+00  0.00000000E+00
  0.00000000E+00  0.00000000E+00  0.00000000E+00
  0.00000000E+00  0.00000000E+00  0.00000000E+00
  0.00000000E+00  0.00000000E+00  0.00000000E+00
  0.00000000E+00  0.00000000E+00  0.00000000E+00
  0.00000000E+00  0.00000000E+00  0.00000000E+00
  0.00000000E+00  0.00000000E+00  0.00000000E+00
  0.00000000E+00  0.00000000E+00  0.00000000E+00
  0.00000000E+00  0.00000000E+00  0.00000000E+00
  0.00000000E+00  0.00000000E+00  0.00000000E+00
  0.00000000E+00  0.00000000E+00  0.00000000E+00
  0.00000000E+00  0.00000000E+00  0.00000000E+00
  0.00000000E+00  0.00000000E+00  0.00000000E+00
  0.00000000E+00  0.00000000E+00  0.00000000E+00
  0.00000000E+00  0.00000000E+00  0.00000000E+00
  0.00000000E+00  0.00000000E+00  0.00000000E+00
  0.00000000E+00  0.00000000E+00  0.00000000E+00
  0.00000000E+00  0.00000000E+00  0.00000000E+00
  0.00000000E+00  0.00000000E+00  0.00000000E+00
  0.00000000E+00  0.00000000E+00  0.00000000E+00
  0.00000000E+00  0.00000000E+00  0.00000000E+00
  0.00000000E+00  0.00000000E+00  0.00000000E+00
  0.00000000E+00  0.00000000E+00  0.00000000E+00
  0.00000000E+00  0.00000000E+00  0.00000000E+00
  0.00000000E+00  0.00000000E+00  0.00000000E+00
  0.00000000E+00  0.00000000E+00  0.00000000E+00
  0.00000000E+00  0.00000000E+00  0.00000000E+00
  0.00000000E+00  0.00000000E+00  0.00000000E+00
  0.00000000E+00  0.00000000E+00  0.00000000E+00
  0.00000000E+00  0.00000000E+00  0.00000000E+00
  0.00000000E+00  0.00000000E+00  0.00000000E+00
  0.00000000E+00  0.00000000E+00  0.00000000E+00
  0.00000000E+00  0.00000000E+00  0.00000000E+00
  0.00000000E+00  0.00000000E+00  0.00000000E+00
  0.00000000E+00  0.00000000E+00  0.00000000E+00
  0.00000000E+00  0.00000000E+00  0.00000000E+00
  0.00000000E+00  0.00000000E+00  0.00000000E+00
